1
53
85
27
15
13
79
64
20
55
42
67
31
47
6
54
75
22
8
17
25
90
34
58
98
88
28
39
38
71
56
5
43
86
50
72
83
62
2
35
68
30
89
41
59
3
73
69
74
57
36
100
33
45
81
97
10
92
99
19
14
4
60
93
49
18
29
37
61
26
78
9
82
7
32
24
46
12
40
65
80
77
23
70
76
91
94
95
21
66
44
63
16
51
48
84
11
52
96
87
1
